presolving:
(round 1, fast)       199 del vars, 0 del conss, 0 add conss, 0 chg bounds, 0 chg sides, 0 chg coeffs, 0 upgd conss, 0 impls, 396 clqs
(round 2, exhaustive) 199 del vars, 0 del conss, 0 add conss, 0 chg bounds, 0 chg sides, 0 chg coeffs, 396 upgd conss, 0 impls, 396 clqs
   (2.0s) probing: 51/39006 (0.1%) - 0 fixings, 0 aggregations, 0 implications, 0 bound changes
   (2.0s) probing aborted: 50/50 successive totally useless probings
   Deactivated symmetry handling methods, since SCIP was built without symmetry detector (SYM=none).
presolving (3 rounds: 3 fast, 2 medium, 2 exhaustive):
 199 deleted vars, 0 deleted constraints, 0 added constraints, 0 tightened bounds, 0 added holes, 0 changed sides, 0 changed coefficients
 0 implications, 396 cliques
presolved problem has 39203 variables (39006 bin, 0 int, 0 impl, 197 cont) and 39008 constraints
    396 constraints of type <setppc>
  38612 constraints of type <linear>
Presolving Time: 2.00

 time | node  | left  |LP iter|LP it/n|mem/heur|mdpt |vars |cons |rows |cuts |sepa|confs|strbr|  dualbound   | primalbound  |  gap   | compl. 
p 4.0s|     1 |     0 |   125 |     - | vbounds|   0 |  39k|  39k|  39k|   0 |  0 |   5 |   0 | 0.000000e+00 | 2.262910e+04 |    Inf | unknown
  4.0s|     1 |     0 |   705 |     - |   356M |   0 |  39k|  39k|  39k|   0 |  0 |   5 |   0 | 1.065160e+04 | 2.262910e+04 | 112.45%| unknown
  5.0s|     1 |     0 |   906 |     - |   366M |   0 |  39k|  39k|  39k| 143 |  1 |   5 |   0 | 1.154442e+04 | 2.262910e+04 |  96.02%| unknown
  6.0s|     1 |     0 |   982 |     - |   372M |   0 |  39k|  39k|  39k| 216 |  2 |   5 |   0 | 1.155998e+04 | 2.262910e+04 |  95.75%| unknown
  7.0s|     1 |     0 |   989 |     - |   379M |   0 |  39k|  39k|  39k| 220 |  3 |   5 |   0 | 1.155998e+04 | 2.262910e+04 |  95.75%| unknown
  8.0s|     1 |     0 |  1054 |     - |   385M |   0 |  39k|  39k|  39k| 251 |  4 |   5 |   0 | 1.156418e+04 | 2.262910e+04 |  95.68%| unknown
  9.0s|     1 |     0 |  1140 |     - |   390M |   0 |  39k|  39k|  39k| 309 |  5 |   5 |   0 | 1.158064e+04 | 2.262910e+04 |  95.40%| unknown
 10.0s|     1 |     0 |  1235 |     - |   399M |   0 |  39k|  39k|  39k| 359 |  6 |   5 |   0 | 1.179476e+04 | 2.262910e+04 |  91.86%| unknown
 11.0s|     1 |     0 |  1300 |     - |   404M |   0 |  39k|  39k|  39k| 393 |  7 |   5 |   0 | 1.179816e+04 | 2.262910e+04 |  91.80%| unknown
 12.0s|     1 |     0 |  1327 |     - |   416M |   0 |  39k|  39k|  39k| 403 |  8 |   5 |   0 | 1.180627e+04 | 2.262910e+04 |  91.67%| unknown
 13.0s|     1 |     0 |  1393 |     - |   422M |   0 |  39k|  39k|  39k| 427 |  9 |   5 |   0 | 1.182745e+04 | 2.262910e+04 |  91.33%| unknown
 14.0s|     1 |     0 |  1445 |     - |   427M |   0 |  39k|  39k|  39k| 451 | 10 |   5 |   0 | 1.186334e+04 | 2.262910e+04 |  90.75%| unknown
 15.0s|     1 |     0 |  1483 |     - |   431M |   0 |  39k|  39k|  39k| 470 | 11 |   5 |   0 | 1.186479e+04 | 2.262910e+04 |  90.72%| unknown
 16.0s|     1 |     0 |  1505 |     - |   435M |   0 |  39k|  39k|  39k| 483 | 12 |   5 |   0 | 1.186479e+04 | 2.262910e+04 |  90.72%| unknown
 17.0s|     1 |     0 |  1561 |     - |   438M |   0 |  39k|  39k|  39k| 507 | 13 |   5 |   0 | 1.186730e+04 | 2.262910e+04 |  90.68%| unknown
 time | node  | left  |LP iter|LP it/n|mem/heur|mdpt |vars |cons |rows |cuts |sepa|confs|strbr|  dualbound   | primalbound  |  gap   | compl. 
 19.0s|     1 |     0 |  1616 |     - |   442M |   0 |  39k|  39k|  39k| 534 | 14 |   5 |   0 | 1.187058e+04 | 2.262910e+04 |  90.63%| unknown
 20.0s|     1 |     0 |  1701 |     - |   446M |   0 |  39k|  39k|  39k| 576 | 15 |   5 |   0 | 1.190056e+04 | 2.262910e+04 |  90.15%| unknown
 21.0s|     1 |     0 |  1742 |     - |   450M |   0 |  39k|  39k|  39k| 599 | 16 |   5 |   0 | 1.190342e+04 | 2.262910e+04 |  90.11%| unknown
 22.0s|     1 |     0 |  1757 |     - |   454M |   0 |  39k|  39k|  39k| 606 | 17 |   5 |   0 | 1.190361e+04 | 2.262910e+04 |  90.10%| unknown
 24.0s|     1 |     0 |  1777 |     - |   457M |   0 |  39k|  39k|  39k| 621 | 18 |   5 |   0 | 1.190361e+04 | 2.262910e+04 |  90.10%| unknown
 24.0s|     1 |     0 |  1805 |     - |   461M |   0 |  39k|  39k|  39k| 632 | 19 |   5 |   0 | 1.191360e+04 | 2.262910e+04 |  89.94%| unknown
 28.0s|     1 |     0 |  1825 |     - |   465M |   0 |  39k|  39k|  39k| 645 | 20 |   5 |   0 | 1.191360e+04 | 2.262910e+04 |  89.94%| unknown
 28.0s|     1 |     0 |  1837 |     - |   466M |   0 |  39k|  39k|  39k| 652 | 21 |   5 |   0 | 1.191360e+04 | 2.262910e+04 |  89.94%| unknown
 29.0s|     1 |     0 |  1846 |     - |   466M |   0 |  39k|  39k|  39k| 657 | 22 |   5 |   0 | 1.191360e+04 | 2.262910e+04 |  89.94%| unknown
 30.0s|     1 |     0 |  1867 |     - |   466M |   0 |  39k|  39k|  39k| 668 | 23 |   5 |   0 | 1.192371e+04 | 2.262910e+04 |  89.78%| unknown
 33.0s|     1 |     0 |  1886 |     - |   467M |   0 |  39k|  39k|  39k| 685 | 24 |   5 |   0 | 1.192371e+04 | 2.262910e+04 |  89.78%| unknown
 33.0s|     1 |     0 |  1889 |     - |   467M |   0 |  39k|  39k|  39k| 689 | 25 |   5 |   0 | 1.192371e+04 | 2.262910e+04 |  89.78%| unknown
 36.0s|     1 |     0 |  1908 |     - |   467M |   0 |  39k|  39k|  39k| 696 | 26 |   5 |   0 | 1.192765e+04 | 2.262910e+04 |  89.72%| unknown
 37.0s|     1 |     0 |  1926 |     - |   467M |   0 |  39k|  39k|  39k| 715 | 27 |   5 |   0 | 1.192808e+04 | 2.262910e+04 |  89.71%| unknown
 37.0s|     1 |     0 |  1934 |     - |   467M |   0 |  39k|  39k|  39k| 719 | 28 |   5 |   0 | 1.192808e+04 | 2.262910e+04 |  89.71%| unknown
 time | node  | left  |LP iter|LP it/n|mem/heur|mdpt |vars |cons |rows |cuts |sepa|confs|strbr|  dualbound   | primalbound  |  gap   | compl. 
 38.0s|     1 |     0 |  1942 |     - |   467M |   0 |  39k|  39k|  39k| 729 | 29 |   5 |   0 | 1.192808e+04 | 2.262910e+04 |  89.71%| unknown
 39.0s|     1 |     0 |  1947 |     - |   467M |   0 |  39k|  39k|  39k| 734 | 30 |   5 |   0 | 1.192808e+04 | 2.262910e+04 |  89.71%| unknown
 40.0s|     1 |     0 |  1948 |     - |   467M |   0 |  39k|  39k|  39k| 735 | 31 |   5 |   0 | 1.192808e+04 | 2.262910e+04 |  89.71%| unknown
 42.0s|     1 |     0 |  1954 |     - |   467M |   0 |  39k|  39k|  39k| 741 | 32 |   5 |   0 | 1.192811e+04 | 2.262910e+04 |  89.71%| unknown
 43.0s|     1 |     0 |  1958 |     - |   467M |   0 |  39k|  39k|  39k| 746 | 33 |   5 |   0 | 1.192811e+04 | 2.262910e+04 |  89.71%| unknown
 43.0s|     1 |     0 |  1961 |     - |   467M |   0 |  39k|  39k|  39k| 748 | 34 |   5 |   0 | 1.192811e+04 | 2.262910e+04 |  89.71%| unknown
 44.0s|     1 |     0 |  1964 |     - |   467M |   0 |  39k|  39k|  39k| 749 | 35 |   5 |   0 | 1.192811e+04 | 2.262910e+04 |  89.71%| unknown
 45.0s|     1 |     0 |  1969 |     - |   467M |   0 |  39k|  39k|  39k| 754 | 36 |   5 |   0 | 1.192811e+04 | 2.262910e+04 |  89.71%| unknown
 46.0s|     1 |     0 |  1970 |     - |   467M |   0 |  39k|  39k|  39k| 755 | 37 |   5 |   0 | 1.192811e+04 | 2.262910e+04 |  89.71%| unknown
 98.0s|     1 |     2 |  8276 |     - |   476M |   0 |  39k|  39k|  39k| 755 | 37 |  14 |  19 | 1.192823e+04 | 2.262910e+04 |  89.71%| unknown

SCIP Status        : solving was interrupted [time limit reached]
Solving Time (sec) : 600.00
Solving Nodes      : 27
Primal Bound       : +2.26290957351808e+04 (1 solutions)
Dual Bound         : +1.19283433408658e+04
Gap                : 89.71 %
Trying to solve problem with MTZ Solver Method...
Starting Solver, time limit setted to 10 minutes
Route:  [[0, 2], [1, 3], [2, 1], [3, 4], [4, 5], [5, 6], [6, 7], [7, 8], [8, 9], [9, 10], [10, 11], [11, 12], [12, 13], [13, 14], [14, 15], [15, 16], [16, 17], [17, 18], [18, 19], [19, 20], [20, 21], [21, 22], [22, 23], [23, 24], [24, 25], [25, 26], [26, 27], [27, 28], [28, 29], [29, 30], [30, 31], [31, 32], [32, 33], [33, 34], [34, 35], [35, 36], [36, 37], [37, 38], [38, 39], [39, 40], [40, 41], [41, 42], [42, 43], [43, 44], [44, 45], [45, 46], [46, 47], [47, 48], [48, 49], [49, 50], [50, 51], [51, 52], [52, 53], [53, 54], [54, 55], [55, 56], [56, 57], [57, 58], [58, 59], [59, 60], [60, 61], [61, 62], [62, 63], [63, 64], [64, 65], [65, 66], [66, 67], [67, 68], [68, 69], [69, 70], [70, 71], [71, 72], [72, 73], [73, 74], [74, 75], [75, 76], [76, 77], [77, 78], [78, 79], [79, 80], [80, 81], [81, 82], [82, 83], [83, 84], [84, 85], [85, 86], [86, 87], [87, 88], [88, 89], [89, 90], [90, 91], [91, 92], [92, 93], [93, 94], [94, 95], [95, 96], [96, 97], [97, 98], [98, 99], [99, 100], [100, 101], [101, 102], [102, 103], [103, 104], [104, 105], [105, 106], [106, 107], [107, 108], [108, 109], [109, 110], [110, 111], [111, 112], [112, 113], [113, 114], [114, 115], [115, 116], [116, 117], [117, 118], [118, 119], [119, 120], [120, 121], [121, 122], [122, 123], [123, 124], [124, 125], [125, 126], [126, 127], [127, 128], [128, 129], [129, 130], [130, 131], [131, 132], [132, 133], [133, 134], [134, 135], [135, 136], [136, 137], [137, 138], [138, 139], [139, 140], [140, 141], [141, 142], [142, 143], [143, 144], [144, 145], [145, 146], [146, 147], [147, 148], [148, 149], [149, 150], [150, 151], [151, 152], [152, 153], [153, 154], [154, 155], [155, 156], [156, 157], [157, 158], [158, 159], [159, 160], [160, 161], [161, 162], [162, 163], [163, 164], [164, 165], [165, 166], [166, 167], [167, 168], [168, 169], [169, 170], [170, 171], [171, 172], [172, 173], [173, 174], [174, 175], [175, 176], [176, 177], [177, 178], [178, 179], [179, 180], [180, 181], [181, 182], [182, 183], [183, 184], [184, 185], [185, 186], [186, 187], [187, 188], [188, 189], [189, 190], [190, 191], [191, 192], [192, 193], [193, 194], [194, 195], [195, 196], [196, 197], [197, 0]]
An Otimal Solution was found, yay!
Objective value: 22629.1
Problem solved in 9257 iterations
Problem solved in 27 nodes
Final Route Configuration succesfully created at:
data/routes/d198.csv
